NAME : random_16
COMMENT : 39 random nodes
TYPE : TSP
DIMENSION : 39
EDGE_WEIGHT_TYPE : EUC_2D
NODE_COORD_SECTION
1 2833 -262
2 1688 2489
3 -66 -763
4 -2013 247
5 1668 4000
6 2419 -875
7 -1378 -2406
8 739 2292
9 4470 -1099
10 1554 3686
11 -965 3808
12 3378 -1976
13 3446 -1693
14 2997 1057
15 -2027 4369
16 3385 4329
17 3049 -2259
18 -157 -740
19 1003 3741
20 -1093 -1158
21 1193 -981
22 424 2317
23 1766 731
24 -1328 -2615
25 3611 458
26 -953 -2061
27 1557 2255
28 1048 2064
29 -2174 -1146
30 1923 -2431
31 3123 3846
32 3266 2418
33 4210 -741
34 -1068 -363
35 -2134 3888
36 -1829 859
37 2876 2892
38 2396 -2695
39 -1677 -177
EOF